c SSAT file for PBN expProb/benchmark/C499-8h written by probABC
p cnf 223 530
e 1 0
e 2 0
e 3 0
e 4 0
e 5 0
e 6 0
e 7 0
e 8 0
e 9 0
e 10 0
e 11 0
e 12 0
e 13 0
e 14 0
e 15 0
e 16 0
e 17 0
e 18 0
e 19 0
e 20 0
e 21 0
e 22 0
e 23 0
e 24 0
e 25 0
e 26 0
e 27 0
e 28 0
e 29 0
e 30 0
e 31 0
e 32 0
e 33 0
e 34 0
e 35 0
e 36 0
e 37 0
e 38 0
e 39 0
e 40 0
e 41 0
r 0.5 218 219 220 0
r 0.5 221 222 223 0
e 42 0
e 43 0
e 45 0
e 46 0
e 47 0
e 48 0
e 49 0
e 50 0
e 51 0
e 52 0
e 53 0
e 54 0
e 55 0
e 56 0
e 57 0
e 58 0
e 59 0
e 60 0
e 61 0
e 62 0
e 63 0
e 64 0
e 65 0
e 66 0
e 67 0
e 68 0
e 69 0
e 70 0
e 71 0
e 72 0
e 73 0
e 74 0
e 75 0
e 76 0
e 77 0
e 78 0
e 79 0
e 80 0
e 81 0
e 82 0
e 83 0
e 84 0
e 85 0
e 86 0
e 87 0
e 88 0
e 89 0
e 90 0
e 91 0
e 92 0
e 93 0
e 94 0
e 95 0
e 96 0
e 97 0
e 98 0
e 99 0
e 100 0
e 101 0
e 102 0
e 103 0
e 104 0
e 105 0
e 106 0
e 107 0
e 108 0
e 109 0
e 110 0
e 111 0
e 112 0
e 113 0
e 114 0
e 115 0
e 116 0
e 117 0
e 118 0
e 119 0
e 120 0
e 121 0
e 122 0
e 123 0
e 124 0
e 125 0
e 126 0
e 127 0
e 128 0
e 129 0
e 130 0
e 131 0
e 132 0
e 133 0
e 134 0
e 135 0
e 136 0
e 137 0
e 138 0
e 139 0
e 140 0
e 141 0
e 142 0
e 143 0
e 144 0
e 145 0
e 146 0
e 147 0
e 148 0
e 149 0
e 150 0
e 151 0
e 152 0
e 153 0
e 154 0
e 155 0
e 156 0
e 157 0
e 158 0
e 159 0
e 160 0
e 161 0
e 162 0
e 163 0
e 164 0
e 165 0
e 166 0
e 167 0
e 168 0
e 169 0
e 170 0
e 171 0
e 172 0
e 173 0
e 174 0
e 175 0
e 176 0
e 177 0
e 178 0
e 179 0
e 180 0
e 181 0
e 182 0
e 183 0
e 184 0
e 185 0
e 186 0
e 187 0
e 188 0
e 189 0
e 190 0
e 191 0
e 192 0
e 193 0
e 194 0
e 195 0
e 196 0
e 197 0
e 198 0
e 199 0
e 200 0
e 201 0
e 202 0
e 203 0
e 204 0
e 205 0
e 206 0
e 207 0
e 208 0
e 209 0
e 210 0
e 211 0
e 212 0
e 213 0
e 214 0
e 215 0
e 216 0
e 217 0
e 44 0
45 -21 -37 0
-45 21 0
-45 37 0
46 -11 -15 0
-46 11 0
-46 15 0
47 -45 -46 0
-47 45 0
-47 46 0
48 -3 -41 0
-48 3 0
-48 41 0
49 -17 -18 0
-49 17 0
-49 18 0
50 -19 -20 0
-50 19 0
-50 20 0
51 -49 -50 0
-51 49 0
-51 50 0
52 -26 -27 0
-52 26 0
-52 27 0
53 -28 -29 0
-53 28 0
-53 29 0
54 -52 -53 0
-54 52 0
-54 53 0
55 -51 -54 0
-55 51 0
-55 54 0
56 -48 -55 0
-56 48 0
-56 55 0
57 -47 -56 0
-57 47 0
-57 56 0
58 -32 -38 0
-58 32 0
-58 38 0
59 -12 -16 0
-59 12 0
-59 16 0
60 -58 -59 0
-60 58 0
-60 59 0
61 -4 -41 0
-61 4 0
-61 41 0
62 -22 -23 0
-62 22 0
-62 23 0
63 -24 -25 0
-63 24 0
-63 25 0
64 -62 -63 0
-64 62 0
-64 63 0
65 -30 -31 0
-65 30 0
-65 31 0
66 -33 -34 0
-66 33 0
-66 34 0
67 -65 -66 0
-67 65 0
-67 66 0
68 -64 -67 0
-68 64 0
-68 67 0
69 -61 -68 0
-69 61 0
-69 68 0
70 -60 -69 0
-70 60 0
-70 69 0
71 -9 -35 0
-71 9 0
-71 35 0
72 -13 -39 0
-72 13 0
-72 39 0
73 -71 -72 0
-73 71 0
-73 72 0
74 -1 -41 0
-74 1 0
-74 41 0
75 -51 -64 0
-75 51 0
-75 64 0
76 -74 -75 0
-76 74 0
-76 75 0
77 -73 -76 0
-77 73 0
-77 76 0
78 -10 -36 0
-78 10 0
-78 36 0
79 -14 -40 0
-79 14 0
-79 40 0
80 -78 -79 0
-80 78 0
-80 79 0
81 -2 -41 0
-81 2 0
-81 41 0
82 -54 -67 0
-82 54 0
-82 67 0
83 -81 -82 0
-83 81 0
-83 82 0
84 -80 -83 0
-84 80 0
-84 83 0
85 -77 -84 0
-85 77 0
-85 84 0
86 -57 -85 0
-86 57 0
-86 85 0
87 -70 -86 0
-87 70 0
-87 86 0
88 -20 -25 0
-88 20 0
-88 25 0
89 -29 -34 0
-89 29 0
-89 34 0
90 -88 -89 0
-90 88 0
-90 89 0
91 -8 -41 0
-91 8 0
-91 41 0
92 -35 -36 0
-92 35 0
-92 36 0
93 -37 -38 0
-93 37 0
-93 38 0
94 -92 -93 0
-94 92 0
-94 93 0
95 -13 -14 0
-95 13 0
-95 14 0
96 -15 -16 0
-96 15 0
-96 16 0
97 -95 -96 0
-97 95 0
-97 96 0
98 -94 -97 0
-98 94 0
-98 97 0
99 -91 -98 0
-99 91 0
-99 98 0
100 -90 -99 0
-100 90 0
-100 99 0
101 -19 -24 0
-101 19 0
-101 24 0
102 -28 -33 0
-102 28 0
-102 33 0
103 -101 -102 0
-103 101 0
-103 102 0
104 -7 -41 0
-104 7 0
-104 41 0
105 -9 -10 0
-105 9 0
-105 10 0
106 -21 -32 0
-106 21 0
-106 32 0
107 -105 -106 0
-107 105 0
-107 106 0
108 -39 -40 0
-108 39 0
-108 40 0
109 -11 -12 0
-109 11 0
-109 12 0
110 -108 -109 0
-110 108 0
-110 109 0
111 -107 -110 0
-111 107 0
-111 110 0
112 -104 -111 0
-112 104 0
-112 111 0
113 -103 -112 0
-113 103 0
-113 112 0
114 -17 -22 0
-114 17 0
-114 22 0
115 -26 -30 0
-115 26 0
-115 30 0
116 -114 -115 0
-116 114 0
-116 115 0
117 -5 -41 0
-117 5 0
-117 41 0
118 -94 -107 0
-118 94 0
-118 107 0
119 -117 -118 0
-119 117 0
-119 118 0
120 -116 -119 0
-120 116 0
-120 119 0
121 -18 -23 0
-121 18 0
-121 23 0
122 -27 -31 0
-122 27 0
-122 31 0
123 -121 -122 0
-123 121 0
-123 122 0
124 -6 -41 0
-124 6 0
-124 41 0
125 -97 -110 0
-125 97 0
-125 110 0
126 -124 -125 0
-126 124 0
-126 125 0
127 -123 -126 0
-127 123 0
-127 126 0
128 -120 -127 0
-128 120 0
-128 127 0
129 -113 -128 0
-129 113 0
-129 128 0
130 -100 -129 0
-130 100 0
-130 129 0
131 -87 -130 0
-131 87 0
-131 130 0
132 -57 -131 0
-132 57 0
-132 131 0
133 -37 -132 0
-133 37 0
-133 132 0
134 -42 72 0
-134 42 0
-134 -72 0
135 42 -72 0
-135 -42 0
-135 72 0
136 134 135 0
-136 -134 0
-136 -135 0
137 -71 136 0
-137 71 0
-137 -136 0
138 -76 -137 0
-138 76 0
-138 137 0
139 -43 84 0
-139 43 0
-139 -84 0
140 43 -84 0
-140 -43 0
-140 84 0
141 139 140 0
-141 -139 0
-141 -140 0
142 -138 141 0
-142 138 0
-142 -141 0
143 -57 -142 0
-143 57 0
-143 142 0
144 -70 -143 0
-144 70 0
-144 143 0
145 -130 -144 0
-145 130 0
-145 144 0
146 -57 -145 0
-146 57 0
-146 145 0
147 -37 -146 0
-147 37 0
-147 146 0
148 -133 147 0
-148 133 0
-148 -147 0
149 133 -147 0
-149 -133 0
-149 147 0
150 148 149 0
-150 -148 0
-150 -149 0
151 -84 -131 0
-151 84 0
-151 131 0
152 -36 -151 0
-152 36 0
-152 151 0
153 141 -145 0
-153 -141 0
-153 145 0
154 -36 -153 0
-154 36 0
-154 153 0
155 -152 154 0
-155 152 0
-155 -154 0
156 152 -154 0
-156 -152 0
-156 154 0
157 155 156 0
-157 -155 0
-157 -156 0
158 -77 -131 0
-158 77 0
-158 131 0
159 -35 -158 0
-159 35 0
-159 158 0
160 -138 -145 0
-160 138 0
-160 145 0
161 -35 -160 0
-161 35 0
-161 160 0
162 -159 161 0
-162 159 0
-162 -161 0
163 159 -161 0
-163 -159 0
-163 161 0
164 162 163 0
-164 -162 0
-164 -163 0
165 -70 -131 0
-165 70 0
-165 131 0
166 -32 -165 0
-166 32 0
-166 165 0
167 -70 -145 0
-167 70 0
-167 145 0
168 -32 -167 0
-168 32 0
-168 167 0
169 -166 168 0
-169 166 0
-169 -168 0
170 166 -168 0
-170 -166 0
-170 168 0
171 169 170 0
-171 -169 0
-171 -170 0
172 -21 -132 0
-172 21 0
-172 132 0
173 -21 -146 0
-173 21 0
-173 146 0
174 -172 173 0
-174 172 0
-174 -173 0
175 172 -173 0
-175 -172 0
-175 173 0
176 174 175 0
-176 -174 0
-176 -175 0
177 -9 -158 0
-177 9 0
-177 158 0
178 -9 -160 0
-178 9 0
-178 160 0
179 -177 178 0
-179 177 0
-179 -178 0
180 177 -178 0
-180 -177 0
-180 178 0
181 179 180 0
-181 -179 0
-181 -180 0
182 -10 -151 0
-182 10 0
-182 151 0
183 -10 -153 0
-183 10 0
-183 153 0
184 -182 183 0
-184 182 0
-184 -183 0
185 182 -183 0
-185 -182 0
-185 183 0
186 184 185 0
-186 -184 0
-186 -185 0
187 -181 -186 0
-187 181 0
-187 186 0
188 -176 -187 0
-188 176 0
-188 187 0
189 -171 -188 0
-189 171 0
-189 188 0
190 -164 -189 0
-190 164 0
-190 189 0
191 -157 -190 0
-191 157 0
-191 190 0
192 -150 -191 0
-192 150 0
-192 191 0
193 -150 -192 0
-193 150 0
-193 192 0
194 -150 -193 0
-194 150 0
-194 193 0
195 -150 -194 0
-195 150 0
-195 194 0
196 -150 -195 0
-196 150 0
-196 195 0
197 -150 -196 0
-197 150 0
-197 196 0
198 -150 -197 0
-198 150 0
-198 197 0
199 -150 -198 0
-199 150 0
-199 198 0
200 -150 -199 0
-200 150 0
-200 199 0
201 -150 -200 0
-201 150 0
-201 200 0
202 -150 -201 0
-202 150 0
-202 201 0
203 -150 -202 0
-203 150 0
-203 202 0
204 -150 -203 0
-204 150 0
-204 203 0
205 -150 -204 0
-205 150 0
-205 204 0
206 -150 -205 0
-206 150 0
-206 205 0
207 -150 -206 0
-207 150 0
-207 206 0
208 -150 -207 0
-208 150 0
-208 207 0
209 -150 -208 0
-209 150 0
-209 208 0
210 -150 -209 0
-210 150 0
-210 209 0
211 -150 -210 0
-211 150 0
-211 210 0
212 -150 -211 0
-212 150 0
-212 211 0
213 -150 -212 0
-213 150 0
-213 212 0
214 -150 -213 0
-214 150 0
-214 213 0
215 -150 -214 0
-215 150 0
-215 214 0
216 -150 -215 0
-216 150 0
-216 215 0
217 -150 -216 0
-217 150 0
-217 216 0
44 217 0
-44 -217 0
44 0
-218 -219 -220 42 0
218 -42 0
219 -42 0
220 -42 0
-221 -222 -223 43 0
221 -43 0
222 -43 0
223 -43 0
